int: z = 10;
var 1 .. z: j;
var 0 .. z: k;
array[0 .. z] of var 0 .. z: s;
array[0 .. z] of 0 .. z * z: sq = array1d(0 .. z, [ x * x | x in 0 .. z ]);
output 
  [ "perfsq\n", show(k), "^2  =  ", show(s[0]), "^2 + ", show(s[1]), 
    "^2 + ", show(s[2]), "^2 + ", show(s[3]), "^2 + ", show(s[4]), "^2 + ", 
    show(s[5]), "^2 + ", show(s[6]), "^2 + ", show(s[7]), "^2 + ", 
    show(s[8]), "^2 + ", show(s[9]), "^2 + ", show(s[10]), "^2\n" ];
